#from Giridhar, Agrawal (Synthesis of distillation configurations II. A search formulation for basic configurations, Computers and Chemical Engineering)

set C := 1 2 3 4;

param alpha := 1 3.413 2 2.146 3 1.398 4 1.0;